p cnf 386 460
18 16 4 21 22 0
18 16 4 21 -22 0
18 16 4 -21 23 0
18 16 4 -21 -23 0
2 -16 4 24 25 0
2 -16 4 24 -25 0
2 -16 4 -24 26 0
2 -16 4 -24 -26 0
-1 10 4 27 28 0
-1 10 4 27 -28 0
-1 10 4 -27 29 0
-1 10 4 -27 -29 0
-16 -15 7 30 31 0
-16 -15 7 30 -31 0
-16 -15 7 -30 32 0
-16 -15 7 -30 -32 0
1 19 -6 33 34 0
1 19 -6 33 -34 0
1 19 -6 -33 35 0
1 19 -6 -33 -35 0
18 -4 1 36 37 0
18 -4 1 36 -37 0
18 -4 1 -36 38 0
18 -4 1 -36 -38 0
-5 -9 8 39 40 0
-5 -9 8 39 -40 0
-5 -9 8 -39 41 0
-5 -9 8 -39 -41 0
-9 19 6 42 43 0
-9 19 6 42 -43 0
-9 19 6 -42 44 0
-9 19 6 -42 -44 0
11 -18 -7 45 46 0
11 -18 -7 45 -46 0
11 -18 -7 -45 47 0
11 -18 -7 -45 -47 0
6 -12 -19 48 49 0
6 -12 -19 48 -49 0
6 -12 -19 -48 50 0
6 -12 -19 -48 -50 0
-4 16 -7 51 52 0
-4 16 -7 51 -52 0
-4 16 -7 -51 53 0
-4 16 -7 -51 -53 0
5 11 18 54 55 0
5 11 18 54 -55 0
5 11 18 -54 56 0
5 11 18 -54 -56 0
13 3 -11 57 58 0
13 3 -11 57 -58 0
13 3 -11 -57 59 0
13 3 -11 -57 -59 0
20 -4 18 60 61 0
20 -4 18 60 -61 0
20 -4 18 -60 62 0
20 -4 18 -60 -62 0
-11 9 8 63 64 0
-11 9 8 63 -64 0
-11 9 8 -63 65 0
-11 9 8 -63 -65 0
20 12 -6 66 67 0
20 12 -6 66 -67 0
20 12 -6 -66 68 0
20 12 -6 -66 -68 0
-12 -14 16 69 70 0
-12 -14 16 69 -70 0
-12 -14 16 -69 71 0
-12 -14 16 -69 -71 0
19 -9 -17 72 73 0
19 -9 -17 72 -73 0
19 -9 -17 -72 74 0
19 -9 -17 -72 -74 0
8 17 -1 75 76 0
8 17 -1 75 -76 0
8 17 -1 -75 77 0
8 17 -1 -75 -77 0
14 -15 7 78 79 0
14 -15 7 78 -79 0
14 -15 7 -78 80 0
14 -15 7 -78 -80 0
14 -18 12 81 82 0
14 -18 12 81 -82 0
14 -18 12 -81 83 0
14 -18 12 -81 -83 0
13 10 -1 84 85 0
13 10 -1 84 -85 0
13 10 -1 -84 86 0
13 10 -1 -84 -86 0
-16 4 8 87 88 0
-16 4 8 87 -88 0
-16 4 8 -87 89 0
-16 4 8 -87 -89 0
8 -16 3 90 91 0
8 -16 3 90 -91 0
8 -16 3 -90 92 0
8 -16 3 -90 -92 0
19 -14 4 93 94 0
19 -14 4 93 -94 0
19 -14 4 -93 95 0
19 -14 4 -93 -95 0
11 9 -19 96 97 0
11 9 -19 96 -97 0
11 9 -19 -96 98 0
11 9 -19 -96 -98 0
-10 -2 -7 99 100 0
-10 -2 -7 99 -100 0
-10 -2 -7 -99 101 0
-10 -2 -7 -99 -101 0
-10 -6 15 102 103 0
-10 -6 15 102 -103 0
-10 -6 15 -102 104 0
-10 -6 15 -102 -104 0
3 -6 -18 105 106 0
3 -6 -18 105 -106 0
3 -6 -18 -105 107 0
3 -6 -18 -105 -107 0
-15 -12 11 108 109 0
-15 -12 11 108 -109 0
-15 -12 11 -108 110 0
-15 -12 11 -108 -110 0
-20 7 15 111 112 0
-20 7 15 111 -112 0
-20 7 15 -111 113 0
-20 7 15 -111 -113 0
15 19 -6 114 115 0
15 19 -6 114 -115 0
15 19 -6 -114 116 0
15 19 -6 -114 -116 0
12 -18 -2 117 118 0
12 -18 -2 117 -118 0
12 -18 -2 -117 119 0
12 -18 -2 -117 -119 0
10 17 -5 120 121 0
10 17 -5 120 -121 0
10 17 -5 -120 122 0
10 17 -5 -120 -122 0
-5 -17 10 123 124 0
-5 -17 10 123 -124 0
-5 -17 10 -123 125 0
-5 -17 10 -123 -125 0
-2 -14 13 126 127 0
-2 -14 13 126 -127 0
-2 -14 13 -126 128 0
-2 -14 13 -126 -128 0
20 7 19 129 130 0
20 7 19 129 -130 0
20 7 19 -129 131 0
20 7 19 -129 -131 0
1 19 -5 132 133 0
1 19 -5 132 -133 0
1 19 -5 -132 134 0
1 19 -5 -132 -134 0
1 -15 6 135 136 0
1 -15 6 135 -136 0
1 -15 6 -135 137 0
1 -15 6 -135 -137 0
6 -14 2 138 139 0
6 -14 2 138 -139 0
6 -14 2 -138 140 0
6 -14 2 -138 -140 0
-2 -12 -19 141 142 0
-2 -12 -19 141 -142 0
-2 -12 -19 -141 143 0
-2 -12 -19 -141 -143 0
20 -11 3 144 145 0
20 -11 3 144 -145 0
20 -11 3 -144 146 0
20 -11 3 -144 -146 0
-5 3 4 147 148 0
-5 3 4 147 -148 0
-5 3 4 -147 149 0
-5 3 4 -147 -149 0
5 -16 -11 150 151 0
5 -16 -11 150 -151 0
5 -16 -11 -150 152 0
5 -16 -11 -150 -152 0
-12 -6 8 153 154 0
-12 -6 8 153 -154 0
-12 -6 8 -153 155 0
-12 -6 8 -153 -155 0
16 18 -14 156 157 0
16 18 -14 156 -157 0
16 18 -14 -156 158 0
16 18 -14 -156 -158 0
-10 -1 -14 159 160 0
-10 -1 -14 159 -160 0
-10 -1 -14 -159 161 0
-10 -1 -14 -159 -161 0
1 20 -11 162 163 0
1 20 -11 162 -163 0
1 20 -11 -162 164 0
1 20 -11 -162 -164 0
17 15 -1 165 166 0
17 15 -1 165 -166 0
17 15 -1 -165 167 0
17 15 -1 -165 -167 0
15 17 5 168 169 0
15 17 5 168 -169 0
15 17 5 -168 170 0
15 17 5 -168 -170 0
-5 -2 14 171 172 0
-5 -2 14 171 -172 0
-5 -2 14 -171 173 0
-5 -2 14 -171 -173 0
-4 -12 -19 174 175 0
-4 -12 -19 174 -175 0
-4 -12 -19 -174 176 0
-4 -12 -19 -174 -176 0
20 -11 -15 177 178 0
20 -11 -15 177 -178 0
20 -11 -15 -177 179 0
20 -11 -15 -177 -179 0
5 -9 14 180 181 0
5 -9 14 180 -181 0
5 -9 14 -180 182 0
5 -9 14 -180 -182 0
18 12 20 183 184 0
18 12 20 183 -184 0
18 12 20 -183 185 0
18 12 20 -183 -185 0
-3 -5 -4 186 187 0
-3 -5 -4 186 -187 0
-3 -5 -4 -186 188 0
-3 -5 -4 -186 -188 0
2 3 -8 189 190 0
2 3 -8 189 -190 0
2 3 -8 -189 191 0
2 3 -8 -189 -191 0
16 -1 9 192 193 0
16 -1 9 192 -193 0
16 -1 9 -192 194 0
16 -1 9 -192 -194 0
9 16 2 195 196 0
9 16 2 195 -196 0
9 16 2 -195 197 0
9 16 2 -195 -197 0
19 -18 4 198 199 0
19 -18 4 198 -199 0
19 -18 4 -198 200 0
19 -18 4 -198 -200 0
-3 2 10 201 202 0
-3 2 10 201 -202 0
-3 2 10 -201 203 0
-3 2 10 -201 -203 0
1 3 13 204 205 0
1 3 13 204 -205 0
1 3 13 -204 206 0
1 3 13 -204 -206 0
17 -5 -18 207 208 0
17 -5 -18 207 -208 0
17 -5 -18 -207 209 0
17 -5 -18 -207 -209 0
-15 -10 -7 210 211 0
-15 -10 -7 210 -211 0
-15 -10 -7 -210 212 0
-15 -10 -7 -210 -212 0
1 9 10 213 214 0
1 9 10 213 -214 0
1 9 10 -213 215 0
1 9 10 -213 -215 0
11 -13 9 216 217 0
11 -13 9 216 -217 0
11 -13 9 -216 218 0
11 -13 9 -216 -218 0
-6 -13 -12 219 220 0
-6 -13 -12 219 -220 0
-6 -13 -12 -219 221 0
-6 -13 -12 -219 -221 0
7 -11 -20 222 223 0
7 -11 -20 222 -223 0
7 -11 -20 -222 224 0
7 -11 -20 -222 -224 0
3 11 -4 225 226 0
3 11 -4 225 -226 0
3 11 -4 -225 227 0
3 11 -4 -225 -227 0
-2 -9 -3 228 229 0
-2 -9 -3 228 -229 0
-2 -9 -3 -228 230 0
-2 -9 -3 -228 -230 0
17 4 -5 231 232 0
17 4 -5 231 -232 0
17 4 -5 -231 233 0
17 4 -5 -231 -233 0
14 10 6 234 235 0
14 10 6 234 -235 0
14 10 6 -234 236 0
14 10 6 -234 -236 0
14 -20 19 237 238 0
14 -20 19 237 -238 0
14 -20 19 -237 239 0
14 -20 19 -237 -239 0
1 17 -10 240 241 0
1 17 -10 240 -241 0
1 17 -10 -240 242 0
1 17 -10 -240 -242 0
17 13 -1 243 244 0
17 13 -1 243 -244 0
17 13 -1 -243 245 0
17 13 -1 -243 -245 0
-13 10 -3 246 247 0
-13 10 -3 246 -247 0
-13 10 -3 -246 248 0
-13 10 -3 -246 -248 0
-6 -16 2 249 250 0
-6 -16 2 249 -250 0
-6 -16 2 -249 251 0
-6 -16 2 -249 -251 0
6 12 -2 252 253 0
6 12 -2 252 -253 0
6 12 -2 -252 254 0
6 12 -2 -252 -254 0
-5 1 11 255 256 0
-5 1 11 255 -256 0
-5 1 11 -255 257 0
-5 1 11 -255 -257 0
-5 -14 6 258 259 0
-5 -14 6 258 -259 0
-5 -14 6 -258 260 0
-5 -14 6 -258 -260 0
7 -8 6 261 262 0
7 -8 6 261 -262 0
7 -8 6 -261 263 0
7 -8 6 -261 -263 0
9 10 4 264 265 0
9 10 4 264 -265 0
9 10 4 -264 266 0
9 10 4 -264 -266 0
-7 -19 8 267 268 0
-7 -19 8 267 -268 0
-7 -19 8 -267 269 0
-7 -19 8 -267 -269 0
16 20 -13 270 271 0
16 20 -13 270 -271 0
16 20 -13 -270 272 0
16 20 -13 -270 -272 0
-15 14 6 273 274 0
-15 14 6 273 -274 0
-15 14 6 -273 275 0
-15 14 6 -273 -275 0
3 -15 12 276 277 0
3 -15 12 276 -277 0
3 -15 12 -276 278 0
3 -15 12 -276 -278 0
-11 6 15 279 280 0
-11 6 15 279 -280 0
-11 6 15 -279 281 0
-11 6 15 -279 -281 0
20 14 -1 282 283 0
20 14 -1 282 -283 0
20 14 -1 -282 284 0
20 14 -1 -282 -284 0
9 19 20 285 286 0
9 19 20 285 -286 0
9 19 20 -285 287 0
9 19 20 -285 -287 0
-14 3 2 288 289 0
-14 3 2 288 -289 0
-14 3 2 -288 290 0
-14 3 2 -288 -290 0
-3 -5 4 291 292 0
-3 -5 4 291 -292 0
-3 -5 4 -291 293 0
-3 -5 4 -291 -293 0
294 295 297 301 309 0
294 295 297 301 -309 0
294 295 297 -301 310 0
294 295 297 -301 -310 0
294 295 -297 302 311 0
294 295 -297 302 -311 0
294 295 -297 -302 312 0
294 295 -297 -302 -312 0
294 -295 298 303 313 0
294 -295 298 303 -313 0
294 -295 298 -303 314 0
294 -295 298 -303 -314 0
294 -295 -298 304 315 0
294 -295 -298 304 -315 0
294 -295 -298 -304 316 0
294 -295 -298 -304 -316 0
-294 296 299 305 317 0
-294 296 299 305 -317 0
-294 296 299 -305 318 0
-294 296 299 -305 -318 0
-294 296 -299 306 319 0
-294 296 -299 306 -319 0
-294 296 -299 -306 320 0
-294 296 -299 -306 -320 0
-294 -296 300 307 321 0
-294 -296 300 307 -321 0
-294 -296 300 -307 322 0
-294 -296 300 -307 -322 0
-294 -296 -300 308 323 0
-294 -296 -300 308 -323 0
-294 -296 -300 -308 324 0
-294 -296 -300 -308 -324 0
325 326 328 332 340 0
325 326 328 332 -340 0
325 326 328 -332 341 0
325 326 328 -332 -341 0
325 326 -328 333 342 0
325 326 -328 333 -342 0
325 326 -328 -333 343 0
325 326 -328 -333 -343 0
325 -326 329 334 344 0
325 -326 329 334 -344 0
325 -326 329 -334 345 0
325 -326 329 -334 -345 0
325 -326 -329 335 346 0
325 -326 -329 335 -346 0
325 -326 -329 -335 347 0
325 -326 -329 -335 -347 0
-325 327 330 336 348 0
-325 327 330 336 -348 0
-325 327 330 -336 349 0
-325 327 330 -336 -349 0
-325 327 -330 337 350 0
-325 327 -330 337 -350 0
-325 327 -330 -337 351 0
-325 327 -330 -337 -351 0
-325 -327 331 338 352 0
-325 -327 331 338 -352 0
-325 -327 331 -338 353 0
-325 -327 331 -338 -353 0
-325 -327 -331 339 354 0
-325 -327 -331 339 -354 0
-325 -327 -331 -339 355 0
-325 -327 -331 -339 -355 0
356 357 359 363 371 0
356 357 359 363 -371 0
356 357 359 -363 372 0
356 357 359 -363 -372 0
356 357 -359 364 373 0
356 357 -359 364 -373 0
356 357 -359 -364 374 0
356 357 -359 -364 -374 0
356 -357 360 365 375 0
356 -357 360 365 -375 0
356 -357 360 -365 376 0
356 -357 360 -365 -376 0
356 -357 -360 366 377 0
356 -357 -360 366 -377 0
356 -357 -360 -366 378 0
356 -357 -360 -366 -378 0
-356 358 361 367 379 0
-356 358 361 367 -379 0
-356 358 361 -367 380 0
-356 358 361 -367 -380 0
-356 358 -361 368 381 0
-356 358 -361 368 -381 0
-356 358 -361 -368 382 0
-356 358 -361 -368 -382 0
-356 -358 362 369 383 0
-356 -358 362 369 -383 0
-356 -358 362 -369 384 0
-356 -358 362 -369 -384 0
-356 -358 -362 370 385 0
-356 -358 -362 370 -385 0
-356 -358 -362 -370 386 0
-356 -358 -362 -370 -386 0

